45 29
48 35
65 1
68 1
68 37
10 6
84 39
22 41
37 18
88 16
71 5
89 42
89 43
13 32
59 2
66 2
40 40
88 42
47 36
89 39
82 12
38 47
26 19
78 28
73 1
10 15
21 36
81 13
70 43
80 21
48 12
65 5
83 7
89 5
50 48
30 4
20 13
20 37
15 41
40 15
33 16
66 21
10 36
58 24
33 16
32 14
75 22
24 49
36 6
76 42
4 23
1 44
4 41
2 12
3 3
1 17
2 33
3 1
1 39
3 20
1 47
2 43
4 41
3 14
3 31
2 25
1 3
4 4
2 31
2 35
4 44
1 14
3 49
3 41
4 9
3 20
4 32
4 9
4 27
3 3
2 4
3 45
3 15
4 33
3 5
4 4
4 46
3 12
3 23
4 14
1 46
2 12
3 17
4 25
3 30
2 22
3 47
2 26
1 17
3 20
